language ESSENCE' 1.0

letting n_courses be 184
letting n_periods be 24
letting prerequisite_RelationAsSet_Explicit_1 be
        [1, 1, 1, 2, 3, 3, 3, 3, 3, 4, 4, 6, 6, 6, 6, 6, 6, 7, 7, 7, 7, 7, 8, 8, 8, 8, 9, 9, 10, 10, 10, 10, 10, 10, 10,
         10, 11, 11, 11, 11, 11, 11, 12, 12, 12, 12, 13, 13, 13, 13, 13, 13, 14, 14, 14, 14, 14, 14, 15, 15, 15, 16, 16,
         16, 17, 17, 17, 17, 17, 18, 18, 19, 19, 19, 19, 20, 20, 20, 20, 21, 21, 21, 21, 21, 21, 21, 21, 21, 22, 22, 22,
         22, 22, 22, 23, 23, 23, 24, 24, 24, 24, 24, 25, 25, 25, 26, 26, 27, 27, 27, 27, 27, 27, 27, 27, 27, 28, 28, 28,
         29, 29, 29, 29, 29, 29, 29, 30, 30, 30, 31, 31, 31, 31, 32, 32, 32, 32, 32, 32, 32, 32, 32, 33, 33, 33, 33, 33,
         33, 33, 34, 34, 35, 35, 35, 35, 36, 36, 36, 37, 37, 37, 37, 37, 37, 38, 38, 38, 38, 38, 38, 38, 38, 39, 39, 39,
         39, 39, 39, 39, 39, 40, 40, 40, 40, 40, 40, 40, 41, 41, 41, 42, 42, 42, 42, 42, 42, 43, 43, 43, 43, 43, 43, 44,
         44, 44, 45, 45, 45, 45, 45, 45, 46, 46, 46, 46, 46, 46, 46, 47, 47, 47, 47, 47, 48, 48, 48, 48, 49, 49, 49, 49,
         49, 49, 49, 50, 50, 51, 51, 51, 51, 51, 52, 52, 52, 54, 54, 56, 56, 57, 57, 57, 58, 59, 59, 60, 60, 60, 60, 61,
         61, 62, 63, 64, 64, 64, 65, 66, 67, 67, 68, 69, 69, 71, 73, 75, 75, 77, 77, 78, 79, 80, 80, 80, 83, 83, 83, 84,
         85, 85, 86, 87, 88, 88, 90, 90, 92, 92, 93, 93, 95, 96, 97, 97, 98, 98, 99, 100, 100, 100, 101, 102, 103, 103,
         105, 105, 107, 108, 110, 110, 110, 110, 111, 111, 111, 114, 115, 116, 116, 117, 118, 119, 121, 122, 123, 125,
         125, 126, 127, 127, 128, 130, 131, 131, 131, 133, 133, 138, 140, 141, 141, 142, 143, 143, 144, 145, 147, 148,
         149, 150, 150;
             int(1..360)]
letting prerequisite_RelationAsSet_Explicit_2 be
        [92, 97, 149, 71, 77, 81, 119, 128, 149, 116, 117, 65, 70, 82, 96, 136, 142, 63, 71, 124, 130, 137, 67, 80, 108,
         112, 59, 112, 61, 69, 74, 92, 97, 122, 139, 143, 57, 84, 90, 122, 133, 142, 62, 83, 93, 143, 56, 63, 73, 81,
         103, 128, 56, 86, 94, 100, 109, 147, 88, 93, 104, 76, 80, 81, 55, 67, 102, 110, 141, 101, 142, 62, 63, 64, 79,
         107, 113, 131, 144, 79, 81, 84, 91, 92, 106, 126, 129, 141, 94, 99, 100, 104, 116, 123, 83, 85, 98, 70, 71, 73,
         87, 95, 78, 109, 119, 124, 148, 54, 68, 87, 118, 121, 133, 135, 136, 145, 77, 99, 105, 78, 82, 95, 117, 128,
         142, 150, 52, 99, 145, 64, 89, 121, 140, 53, 59, 65, 70, 80, 93, 113, 133, 140, 56, 61, 63, 99, 101, 112, 139,
         67, 114, 54, 56, 106, 129, 59, 73, 149, 58, 66, 70, 79, 141, 146, 58, 75, 79, 96, 97, 107, 117, 118, 78, 85,
         86, 105, 111, 115, 123, 139, 62, 86, 116, 121, 128, 134, 137, 96, 118, 145, 64, 76, 88, 90, 103, 134, 60, 77,
         97, 98, 100, 132, 53, 121, 129, 91, 112, 130, 132, 136, 138, 52, 74, 103, 105, 108, 128, 129, 52, 72, 85, 87,
         122, 74, 77, 105, 147, 76, 90, 96, 111, 120, 125, 132, 112, 138, 75, 103, 127, 129, 148, 163, 165, 174, 151,
         153, 154, 179, 154, 173, 180, 170, 152, 173, 155, 159, 160, 164, 159, 175, 177, 184, 159, 164, 180, 163, 152,
         173, 182, 157, 156, 165, 180, 152, 154, 178, 160, 169, 156, 183, 153, 171, 182, 154, 173, 177, 176, 183, 184,
         172, 163, 160, 178, 176, 179, 176, 177, 164, 167, 177, 157, 164, 178, 161, 184, 161, 153, 158, 176, 177, 168,
         166, 181, 159, 177, 177, 176, 155, 163, 164, 183, 151, 160, 163, 177, 175, 166, 169, 183, 155, 169, 167, 174,
         181, 159, 172, 178, 151, 164, 158, 156, 156, 171, 174, 154, 182, 179, 182, 153, 166, 183, 162, 165, 181, 162,
         172, 170, 175, 158, 165;
             int(1..360)]
letting course_load_Function1D be
        [6, 6, 3, 2, 4, 6, 6, 2, 2, 5, 6, 3, 5, 6, 3, 5, 6, 2, 2, 7, 3, 2, 5, 6, 3, 6, 5, 6, 2, 7, 6, 2, 6, 3, 7, 3, 5,
         7, 6, 7, 3, 3, 4, 4, 2, 5, 3, 2, 4, 3, 4, 4, 2, 3, 6, 7, 7, 5, 3, 4, 6, 6, 3, 5, 7, 6, 2, 5, 2, 6, 2, 6, 3, 3,
         5, 7, 3, 2, 4, 4, 2, 3, 5, 3, 7, 3, 3, 6, 4, 3, 5, 7, 2, 5, 4, 3, 3, 4, 4, 7, 6, 3, 5, 4, 6, 4, 2, 5, 4, 3, 6,
         3, 2, 4, 2, 2, 2, 3, 5, 6, 2, 4, 5, 2, 2, 6, 4, 4, 4, 2, 3, 4, 4, 3, 3, 2, 4, 4, 4, 6, 3, 5, 5, 2, 2, 5, 6, 7,
         2, 4, 6, 6, 6, 7, 4, 6, 5, 3, 7, 3, 3, 2, 6, 5, 4, 5, 4, 7, 4, 3, 3, 2, 2, 3, 5, 3, 4, 6, 4, 4, 7, 5, 4, 4;
             int(1..184)]
letting load_per_period_ub be 33
letting load_per_period_lb be 9
letting courses_per_period_ub be 8
letting courses_per_period_lb be 4
letting fin1 be 360
letting fin2 be 184
letting fin3 be 7
